db/data/318062361067165928321718262943120369.z3.out
-------------------
2500.115566071
